14,1	0,0	18,1	8,1	0,0	0,0	0,0	0,0	0,0	14,3
10,9	19,8	0,0	19,7	18,1	0,0	0,0	12,6	0,0	0,0
0,0	0,0	13,9	0,0	15,6	6,4	0,0	0,0	5,1	0,0
12,2	0,0	7,5	0,0	0,0	0,0	17,4	0,0	0,0	0,0
0,0	10,5	0,0	14,0	17,3	0,0	0,0	18,3	0,0	0,0
0,0	9,0	15,0	0,0	10,6	5,7	0,0	0,0	10,4	0,0
0,0	16,4	0,0	8,2	0,0	0,0	10,7	0,0	0,0	9,3
17,6	0,0	20,0	0,0	0,0	0,0	0,0	0,0	0,0	7,8
0,0	9,3	0,0	10,2	17,1	0,0	0,0	16,3	0,0	0,0
0,0	0,0	12,4	0,0	0,0	10,7	13,0	0,0	0,0	9,7
									
3,3	4,2	3,5	4,9	3,8	4,0	4,8	3,8	3,2	2,6
